qe/outputs/qe/qe_queries_cbrdelay_obs_redo/input_T=5,eliminate=[I_0,I_1,I_2,I_3,I_4,L_3,L_4,C,B,lhs=S_4].smt2
; benchmark generated from python API
(set-info :status unknown)
(declare-fun S_3 () Real)
(declare-fun L_2 () Real)
(declare-fun A_2 () Real)
(declare-fun A_3 () Real)
(declare-fun A_4 () Real)
(declare-fun A_1 () Real)
(declare-fun A_0 () Real)
(declare-fun S_4 () Real)
(declare-fun S_2 () Real)
(declare-fun S_1 () Real)
(declare-fun S_0 () Real)
(declare-fun L_1 () Real)
(declare-fun L_0 () Real)
(declare-fun a () Real)
(assert
 (exists ((I_0 Real) (I_1 Real) (I_2 Real) (I_3 Real) (I_4 Real) (L_3 Real) (L_4 Real) (C Real) (B Real) )(let ((?x90 (- A_2 L_2)))
 (let (($x124 (<= ?x90 S_3)))
 (let (($x122 (>= A_4 A_3)))
 (let (($x121 (>= A_3 A_2)))
 (let (($x120 (>= A_2 A_1)))
 (let (($x119 (>= A_1 A_0)))
 (let (($x117 (>= S_4 S_3)))
 (let (($x114 (>= S_3 S_2)))
 (let (($x111 (>= S_2 S_1)))
 (let (($x108 (>= S_1 S_0)))
 (let ((?x149 (- A_4 L_4)))
 (let ((?x146 (* C 1.0)))
 (let ((?x150 (+ I_3 ?x146)))
 (let (($x157 (= I_3 (ite (< (+ I_2 ?x146) (- A_3 L_3)) (+ I_2 ?x146) (- A_3 L_3)))))
 (let ((?x85 (- A_1 L_1)))
 (let ((?x162 (+ I_0 ?x146)))
 (let (($x166 (= L_4 L_3)))
 (let (($x171 (=> (not (> (- (- A_4 L_3) I_4) B)) $x166)))
 (let (($x169 (> (- (- A_4 L_3) I_4) B)))
 (let (($x175 (=> $x169 (= L_4 (- (- A_4 I_4) B)))))
 (let (($x176 (= L_3 L_2)))
 (let (($x180 (=> (not (> (- (- A_3 L_2) I_3) B)) $x176)))
 (let (($x178 (> (- (- A_3 L_2) I_3) B)))
 (let (($x184 (=> $x178 (= L_3 (- (- A_3 I_3) B)))))
 (let (($x61 (= L_2 L_1)))
 (let (($x188 (=> (not (> (- (- A_2 L_1) I_2) B)) $x61)))
 (let (($x186 (> (- (- A_2 L_1) I_2) B)))
 (let (($x192 (=> $x186 (= L_2 (- (- A_2 I_2) B)))))
 (let (($x51 (= L_1 L_0)))
 (let (($x196 (=> (not (> (- (- A_1 L_0) I_1) B)) $x51)))
 (let (($x194 (> (- (- A_1 L_0) I_1) B)))
 (let (($x200 (=> $x194 (= L_1 (- (- A_1 I_1) B)))))
 (let (($x42 (= a 1.0)))
 (let (($x34 (>= L_0 0.0)))
 (and $x34 (<= I_0 (- A_0 L_0)) (>= C (* 5.0 a)) (>= B (* 5.0 a)) $x42 $x200 $x196 $x192 $x188 $x184 $x180 $x175 $x171 $x200 $x196 $x192 $x188 $x184 $x180 $x175 $x171 (= I_1 (ite (< ?x162 ?x85) ?x162 ?x85)) (= I_2 (ite (< (+ I_1 ?x146) ?x90) (+ I_1 ?x146) ?x90)) $x157 (= I_4 (ite (< ?x150 ?x149) ?x150 ?x149)) (>= S_0 (- I_0 ?x146)) (<= S_0 I_0) (>= S_1 I_0) $x108 (<= S_1 I_1) (>= S_2 I_1) $x111 (<= S_2 I_2) (>= S_3 I_2) $x114 (<= S_3 I_3) (>= S_4 I_3) $x117 (<= S_4 I_4) $x119 $x120 $x121 $x122 (> (- A_3 L_3) S_3) $x124))))))))))))))))))))))))))))))))))))
 )
(check-sat)
